Version identifier: 20.1.0.0 | 2020-11-10 | 9bedb6d68
Tried aggregator 2 times.
MIP Presolve eliminated 271 rows and 233 columns.
Aggregator did 11 substitutions.
Reduced MIP has 25 rows, 30 columns, and 59 nonzeros.
Reduced MIP has 18 binaries, 0 generals, 0 SOSs, and 0 indicators.
Presolve time = 0.00 sec. (0.33 ticks)
Found incumbent of value 2.686368 after 0.00 sec. (0.38 ticks)
Probing fixed 0 vars, tightened 6 bounds.
Probing changed sense of 6 constraints.
Probing time = 0.00 sec. (0.03 ticks)
Cover probing fixed 0 vars, tightened 1 bounds.
Tried aggregator 1 time.
MIP Presolve eliminated 27 rows and 29 columns.
MIP Presolve added 2 rows and 0 columns.
MIP Presolve modified 3 coefficients.
All rows and columns eliminated.
Presolve time = 0.00 sec. (0.02 ticks)

Root node processing (before b&c):
  Real time             =    0.01 sec. (1.44 ticks)
Parallel b&c, 10 threads:
  Real time             =    0.00 sec. (0.00 ticks)
  Sync time (average)   =    0.00 sec.
  Wait time (average)   =    0.00 sec.
                          ------------
Total (root+branch&cut) =    0.01 sec. (1.44 ticks)
